; ═══════════════════════════════════════════════════════════════════
; LITMUS∞ SMT-LIB2 Encoding — Axiomatic Memory Model Verification
; ═══════════════════════════════════════════════════════════════════
;
; Theory: Axiomatic weak memory model verification (Alglave et al. 2014)
;
; Sorts:
;   Int — event timestamps (topological ordering for acyclicity)
;   Int — read-from values (index into per-address store list)
;   Bool — coherence order relation (total order on stores per address)
;
; Relations encoded:
;   po  — program order (model-dependent preservation)
;   rf  — read-from (which store each load reads)
;   co  — coherence order (total order on stores per address)
;   fr  — from-reads (derived: load reads from s_i, s_j co-after s_i)
;
; Safety property:
;   UNSAT ⟹ forbidden outcome unreachable under model (SAFE)
;   SAT   ⟹ forbidden outcome reachable (UNSAFE, witness provided)
;
; Memory model: RISC-V
; Pattern: lockfree_stack_pop
; Forbidden outcome: {"r0": 0, "r1": 2}
; ═══════════════════════════════════════════════════════════════════

; ── Theory Declarations ─────────────────────────────────────────────
; Axiomatic memory model framework (Alglave, Maranget, Tautschnig 2014)
;
; An execution X = (E, po, rf, co) where:
;   E   = set of memory events (reads/writes with addresses and values)
;   po  = program order (per-thread total order on events)
;   rf  = read-from function mapping each read to the write it reads
;   co  = coherence order (per-address total order on writes)
;   fr  = from-reads: derived as rf^{-1}; co
;
; A memory model M defines which executions are consistent via
; acyclicity constraints on combinations of these relations.
;
; Models encoded:
;   TSO   — acyclic(po ∪ rf ∪ co ∪ fr), po relaxes W→R only
;   PSO   — additionally relaxes W→W
;   ARM   — relaxes all cross-address po except deps and fences
;   RISC-V — like ARM with asymmetric fence.{pred}.{succ}
;   GPU    — like ARM with scoped fences (workgroup/device/system)
;
; Encoding strategy:
;   Acyclicity is encoded via integer timestamps:
;   For each event e, ts(e) ∈ ℤ with ts(a) < ts(b) for each preserved edge a→b.
;   A cycle exists iff the conjunction of all ts constraints is unsatisfiable.
;   We conjoin the forbidden outcome constraint and check satisfiability.

; ── Pattern: lockfree_stack_pop ─────────────────────────
; Threads: 2
; Addresses: x, y
; Memory model: RISC-V
; Forbidden outcome: {'r0': 0, 'r1': 2}
;
; Operations:
;   e0: T0 Load y → r0
;   e1: T0 Load x → r1
;   e2: T0 Store y = 1
;   e3: T1 Store x = 2
;   e4: T1 Store y = 2

(set-logic QF_LIA)

(declare-fun rf_0 () Int)
(declare-fun rf_1 () Int)
(declare-fun co_y_2_1 () Bool)
(declare-fun co_y_1_2 () Bool)
(declare-fun ts_0 () Int)
(declare-fun ts_1 () Int)
(declare-fun ts_2 () Int)
(declare-fun ts_3 () Int)
(declare-fun ts_4 () Int)
(declare-fun ts_init_x () Int)
(declare-fun ts_init_y () Int)
(assert (>= rf_0 0))
(assert (< rf_0 3))
(assert (>= rf_1 0))
(assert (< rf_1 2))
(assert (or co_y_1_2 co_y_2_1))
(assert (not (and co_y_1_2 co_y_2_1)))
(assert (>= ts_0 0))
(assert (< ts_0 70))
(assert (>= ts_1 0))
(assert (< ts_1 70))
(assert (>= ts_2 0))
(assert (< ts_2 70))
(assert (>= ts_3 0))
(assert (< ts_3 70))
(assert (>= ts_4 0))
(assert (< ts_4 70))
(assert (>= ts_init_x 0))
(assert (>= ts_init_y 0))
(assert (< ts_0 ts_2))
(assert (=> (= rf_0 0) (< ts_init_y ts_0)))
(assert (=> (= rf_0 1) (< ts_2 ts_0)))
(assert (=> (= rf_0 2) (< ts_4 ts_0)))
(assert (=> (= rf_1 0) (< ts_init_x ts_1)))
(assert (=> (= rf_1 1) (< ts_3 ts_1)))
(assert (< ts_init_x ts_3))
(assert (< ts_init_y ts_2))
(assert (< ts_init_y ts_4))
(assert (=> co_y_1_2 (< ts_2 ts_4)))
(assert (=> co_y_2_1 (< ts_4 ts_2)))
(assert (=> (= rf_0 0) (< ts_0 ts_2)))
(assert (=> (= rf_0 0) (< ts_0 ts_4)))
(assert (=> (and (= rf_0 1) co_y_1_2) (< ts_0 ts_4)))
(assert (=> (and (= rf_0 2) co_y_2_1) (< ts_0 ts_2)))
(assert (=> (= rf_1 0) (< ts_1 ts_3)))
(assert (and (or (= rf_0 0)) (or (= rf_1 1))))

(check-sat)
(get-model)

; ── SAT Witness (counterexample execution) ──
; Status: SAT — forbidden outcome IS reachable under RISC-V
;   rf_0 = 0
;   rf_1 = 1
;   co_y_1_2 = False
;   co_y_2_1 = True

(exit)